unknown
(model
; cardinality of BoundSet is 3
(declare-sort BoundSet 0)
; rep: @uc_BoundSet_0
; rep: @uc_BoundSet_1
; rep: @uc_BoundSet_2
; cardinality of UnboundSet is 1
(declare-sort UnboundSet 0)
(declare-fun groundTerm_4 () UnboundSet)
(define-fun IsPushing ((BOUND_VARIABLE_460 BoundSet)) Bool true)
(define-fun HasManyCartons ((BOUND_VARIABLE_460 BoundSet)) Bool true)
(define-fun IsOnStreet ((BOUND_VARIABLE_460 BoundSet)) Bool true)
(define-fun HasBread ((BOUND_VARIABLE_460 BoundSet)) Bool false)
(define-fun IsBaking ((BOUND_VARIABLE_460 BoundSet)) Bool false)
(define-fun IsInOven ((BOUND_VARIABLE_460 BoundSet)) Bool false)
)
sat
(model
; cardinality of BoundSet is 1
(declare-sort BoundSet 0)
; rep: @uc_BoundSet_0
; cardinality of UnboundSet is 1
(declare-sort UnboundSet 0)
(declare-fun groundTerm_7 () UnboundSet)
(define-fun IsPushing ((BOUND_VARIABLE_504 BoundSet)) Bool true)
(define-fun HasManyCartons ((BOUND_VARIABLE_504 BoundSet)) Bool true)
(define-fun IsOnStreet ((BOUND_VARIABLE_504 BoundSet)) Bool true)
(define-fun HasBread ((BOUND_VARIABLE_504 BoundSet)) Bool true)
(define-fun IsBaking ((BOUND_VARIABLE_504 BoundSet)) Bool false)
(define-fun IsInOven ((BOUND_VARIABLE_504 BoundSet)) Bool false)
)
